\ENCODING=ISO-8859-1
\Problem name: diet

Minimize
 obj: 1.84 x1 + 2.19 x2 + 1.84 x3 + 1.44 x4 + 2.29 x5 + 0.77 x6 + 1.29 x7
      + 0.6 x8 + 0.72 x9
Subject To
 c1: 510 x1 + 370 x2 + 500 x3 + 370 x4 + 400 x5 + 220 x6 + 345 x7 + 110 x8
     + 80 x9 - x10  = 2000
 c2: 34 x1 + 35 x2 + 42 x3 + 38 x4 + 42 x5 + 26 x6 + 27 x7 + 12 x8 + 20 x9
     - x11  = 350
 c3: 28 x1 + 24 x2 + 25 x3 + 14 x4 + 31 x5 + 3 x6 + 15 x7 + 9 x8 + x9 - x12
      = 55
 c4: 15 x1 + 15 x2 + 6 x3 + 2 x4 + 8 x5 + 4 x7 + 10 x8 + 2 x9 - x13  = 100
 c5: 6 x1 + 10 x2 + 2 x3 + 15 x5 + 15 x6 + 4 x8 + 120 x9 - x14  = 100
 c6: 30 x1 + 20 x2 + 25 x3 + 15 x4 + 15 x5 + 20 x7 + 30 x8 + 2 x9 - x15  = 100
 c7: 20 x1 + 20 x2 + 20 x3 + 10 x4 + 8 x5 + 2 x6 + 15 x7 + 2 x9 - x16  = 100
Bounds
 0 <= x1 <= 10
 0 <= x2 <= 10
 0 <= x3 <= 10
 0 <= x4 <= 10
 0 <= x5 <= 10
 0 <= x6 <= 10
 0 <= x7 <= 10
 0 <= x8 <= 10
 0 <= x9 <= 10
 0 <= x10 <= 7999
 0 <= x11 <= 25
 0 <= x12 <= 9944
 0 <= x13 <= 9899
 0 <= x14 <= 9899
 0 <= x15 <= 9899
 0 <= x16 <= 9899
End
